interdiction/MCDM/NO_CORR/GEN_FROM_60/10_ITEMS_1000_GEN/K5011W15.KNP.mps
NAME          BLANK   
ROWS
 N  OBJROW
 L  R0000000
COLUMNS
    C0000000  OBJROW     -833.         R0000000  607.        
    C0000001  OBJROW     -290.         R0000000  972.        
    C0000002  OBJROW     -902.         R0000000  927.        
    C0000003  OBJROW     -149.         R0000000  723.        
    C0000004  OBJROW     -294.         R0000000  785.        
    C0000005  OBJROW     -327.         R0000000  792.        
    C0000006  OBJROW     -682.         R0000000  355.        
    C0000007  OBJROW     -408.         R0000000  582.        
    C0000008  OBJROW     -546.         R0000000  836.        
    C0000009  OBJROW     -505.         R0000000  6.          
    C0000010  OBJROW     -546.         R0000000  573.        
RHS
    RHS       R0000000  13564.      
BOUNDS
 BV BOUND     C0000000  1.          
 BV BOUND     C0000001  1.          
 BV BOUND     C0000002  1.          
 BV BOUND     C0000003  1.          
 BV BOUND     C0000004  1.          
 BV BOUND     C0000005  1.          
 BV BOUND     C0000006  1.          
 BV BOUND     C0000007  1.          
 BV BOUND     C0000008  1.          
 BV BOUND     C0000009  1.          
 BV BOUND     C0000010  1.          
ENDATA
