interdiction/MCDM/NO_CORR/GEN_FROM_60/10_ITEMS_1000_GEN/K5011W15.KNP.txt
N 11
M 12
LC 11
LC 12
LC 13
LC 14
LC 15
LC 16
LC 17
LC 18
LC 19
LC 20
LC 21
LR 1
LR 2
LR 3
LR 4
LR 5
LR 6
LR 7
LR 8
LR 9
LR 10
LR 11
LR 12
LO -833
LO -290
LO -902
LO -149
LO -294
LO -327
LO -682
LO -408
LO -546
LO -505
LO -546
OS 1
IC 235
IC 374
IC 13
IC 927
IC 459
IC 529
IC 778
IC 247
IC 523
IC 119
IC 369
IB 2287
